sat
(:added-eqs                       29
 :arith-eq-adapter                8
 :arith-conflicts                 1
 :arith-diseq                     6
 :arith-grobner-calls             1
 :arith-horner-cross-nested-forms 24
 :arith-lower                     16
 :arith-make-feasible             11
 :arith-max-columns               72
 :arith-max-rows                  24
 :arith-nla-propagate-eq          10
 :arith-nra-calls                 1
 :arith-upper                     25
 :binary-propagations             31
 :conflicts                       2
 :decisions                       21
 :final-checks                    1
 :max-memory                      44.55
 :memory                          30.64
 :mk-bool-var                     63
 :mk-clause                       7
 :mk-clause-binary                31
 :nlsat-conflicts                 18
 :nlsat-propagations              317
 :nlsat-restarts                  1
 :nlsat-stages                    178
 :num-allocs                      52525852
 :num-checks                      1
 :propagations                    32
 :rlimit-count                    386139
 :sat-backjumps                   501
 :sat-conflicts                   501
 :sat-decisions                   1393
 :sat-del-clause                  9097
 :sat-elim-bool-vars-res          1869
 :sat-elim-clauses                10
 :sat-elim-literals               108
 :sat-minimized-lits              5272
 :sat-mk-clause-2ary              8409
 :sat-mk-clause-3ary              3929
 :sat-mk-clause-nary              27712
 :sat-mk-var                      7171
 :sat-probing-assigned            242
 :sat-propagations-2ary           80019
 :sat-propagations-nary           135746
 :sat-restarts                    54
 :sat-scc-elim-binary             2
 :sat-scc-elim-vars               44
 :sat-subs-resolution             84
 :sat-subs-resolution-dyn         130
 :sat-subsumed                    1604
 :sat-units                       383
 :time                            0.14
 :total-time                      0.16)
